max

obj:

+45.75 x0
+72.35 x1
+39.71 x2
+41.04 x3
+42.53 x4
+33.71 x5
-0.11 x6
+50.41 x7
+7.13 x8
+47.09 x9
+33.98 x10
+90.96 x11
+28.0 x12
+28.0 x13
+33.5 x14
+28.0 x15
+25.0 x16
+20.0 x17
-13.4 x18
+12.0 x19
-2.91 x20
+40.0 x21
+33.98 x22
+90.96 x23


s.t.

c0:
+1.0 x0
-1.0 x24
= 2.8420000076293945
c1:
-1.0 x24
+1.0 x1
= 1.3270000219345093
c2:
-1.0 x24
+1.0 x2
= 2.240999937057495
c3:
-1.0 x24
+1.0 x3
= 1.9279999732971191
c4:
+1.0 x4
-1.0 x24
= 1.725000023841858
c5:
-1.0 x24
+1.0 x5
= 0.2709999978542328
c6:
+1.0 x6
-1.0 x24
= 3.7950000762939453
c7:
-1.0 x24
+1.0 x7
= 0.1509999930858612
c8:
+1.0 x8
-1.0 x24
= 0.22300000488758087
c9:
+1.0 x9
-1.0 x24
= 0.6140000224113464
c10:
+1.0 x10
-1.0 x24
= 0.5479999780654907
c11:
+1.0 x11
-1.0 x24
= 0.32499998807907104
c12:
+1.0 x24
>= -0.0


bounds

+0.0 <=  x0 <= +7.2
+0.0 <=  x1 <= +7.2
+0.0 <=  x2 <= +7.2
+0.0 <=  x3 <= +7.2
+0.0 <=  x4 <= +7.2
+0.0 <=  x5 <= +7.2
+0.0 <=  x6 <= +7.2
+0.0 <=  x7 <= +7.2
+0.0 <=  x8 <= +7.2
+0.0 <=  x9 <= +7.2
+0.0 <=  x10 <= +7.2
+0.0 <=  x11 <= +7.2
-7.2 <=  x12 <= +7.2
-7.2 <=  x13 <= +7.2
-7.2 <=  x14 <= +7.2
-7.2 <=  x15 <= +7.2
-7.2 <=  x16 <= +7.2
-7.2 <=  x17 <= +7.2
-7.2 <=  x18 <= +7.2
-7.2 <=  x19 <= +7.2
-7.2 <=  x20 <= +7.2
-7.2 <=  x21 <= +7.2
-7.2 <=  x22 <= +7.2
-7.2 <=  x23 <= +7.2
-7.2 <=  x24 <= +7.2
end
